12
14
0 36 53 40 21 73 72 74 75 133 22 41 145 67
15
0 27 69 1 50 102 33 81 120 9 103 71 65 136 35
12
0 112 13 117 97 87 144 42 142 14 140 46
15
0 146 52 127 31 88 148 62 10 108 64 63 90 32 66
13
0 7 28 26 109 121 29 24 134 54 130 55 25
11
0 105 19 76 149 110 4 139 39 56 23
10
0 106 58 137 2 115 57 15 43 38
12
0 89 18 60 118 5 84 8 124 45 17 113
14
0 111 132 101 70 122 30 20 128 131 126 11 107 143
16
0 138 12 150 80 68 116 77 3 129 79 78 34 135 51 49
13
0 147 94 95 92 98 37 100 119 44 86 125 47
17
0 6 96 104 99 59 93 85 91 141 16 61 83 114 82 48 123
